Instance name: /home/cuong/CLionProjects/uMV-FSTSP/50_dis_rand_ins/v13
Write arg val: 1

drone speed: 1 miles/minute
uav non-eligible customer: 7 8 11 
Printing tau:
0 10.1583 67.6292 58.5808 67.7516 52.5421 58.4832 59.9846 52.0882 101.686 96.894 0 
10.1583 0 77.7875 68.7391 61.4879 46.2784 52.2195 53.7209 45.8245 95.4224 90.6303 10.1583 
67.6292 77.7875 0 9.04842 66.4813 47.4566 74.8226 92.201 102.421 50.2569 71.091 67.6292 
58.5808 68.7391 9.04842 0 57.4328 38.4082 65.7742 83.1526 93.3725 47.4251 62.0426 58.5808 
67.7516 61.4879 66.4813 57.4328 0 19.0246 9.26839 25.7197 35.9396 33.9346 29.1424 67.7516 
52.5421 46.2784 47.4566 38.4082 19.0246 0 27.3659 44.7443 54.9643 49.1441 44.352 52.5421 
58.4832 52.2195 74.8226 65.7742 9.26839 27.3659 0 17.3784 27.5983 43.2029 38.4108 58.4832 
59.9846 53.7209 92.201 83.1526 25.7197 44.7443 17.3784 0 10.2199 47.7038 36.9095 59.9846 
52.0882 45.8245 102.421 93.3725 35.9396 54.9643 27.5983 10.2199 0 57.9238 44.8059 52.0882 
101.686 95.4224 50.2569 47.4251 33.9346 49.1441 43.2029 47.7038 57.9238 0 26.5939 101.686 
96.894 90.6303 71.091 62.0426 29.1424 44.352 38.4108 36.9095 44.8059 26.5939 0 96.894 
0 0 0 0 0 0 0 0 0 0 0 0 
Printing tau_prime:
0 3.16453 22.5292 21.1733 17.9679 14.9239 15.6246 17.1886 16.6097 27.6525 25.7093 0 
3.16453 0 23.8513 22.2309 16.5778 14.6722 13.8691 14.7487 13.7954 26.7983 24.0975 3.16453 
22.5292 23.8513 0 2.51408 18.1521 12.5873 19.9283 24.5535 27.159 17.7992 22.3762 22.5292 
21.1733 22.2309 2.51408 0 15.6437 10.1947 17.4769 22.1013 24.7658 15.7003 19.9612 21.1733 
17.9679 16.5778 18.1521 15.6437 0 6.45864 3.30639 7.12416 10.3957 10.7215 7.82364 17.9679 
14.9239 14.6722 12.5873 10.1947 6.45864 0 7.42553 12.0276 14.5751 13.0549 13.3262 14.9239 
15.6246 13.8691 19.9283 17.4769 3.30639 7.42553 0 4.62531 7.51201 13.9964 10.2332 15.6246 
17.1886 14.7487 24.5535 22.1013 7.12416 12.0276 4.62531 0 3.42463 16.8013 11.2748 17.1886 
16.6097 13.7954 27.159 24.7658 10.3957 14.5751 7.51201 3.42463 0 20.2207 14.4973 16.6097 
27.6525 26.7983 17.7992 15.7003 10.7215 13.0549 13.9964 16.8013 20.2207 0 7.16534 27.6525 
25.7093 24.0975 22.3762 19.9612 7.82364 13.3262 10.2332 11.2748 14.4973 7.16534 0 25.7093 
0 0 0 0 0 0 0 0 0 0 0 0 
Version identifier: 22.1.1.0 | 2022-11-28 | 9160aff4d
CPXPARAM_MIP_Tolerances_Integrality              0
Tried aggregator 1 time.
MIP Presolve eliminated 1 rows and 12 columns.
MIP Presolve modified 20 coefficients.
Reduced MIP has 122 rows, 120 columns, and 510 nonzeros.
Reduced MIP has 110 binaries, 0 generals, 0 SOSs, and 0 indicators.
Presolve time = 0.00 sec. (0.27 ticks)
Found incumbent of value 579.140200 after 0.00 sec. (0.75 ticks)
Probing time = 0.00 sec. (0.26 ticks)
Cover probing fixed 0 vars, tightened 10 bounds.
Tried aggregator 1 time.
Detecting symmetries...
MIP Presolve eliminated 10 rows and 0 columns.
MIP Presolve modified 180 coefficients.
Reduced MIP has 112 rows, 120 columns, and 490 nonzeros.
Reduced MIP has 110 binaries, 0 generals, 0 SOSs, and 0 indicators.
Presolve time = 0.00 sec. (0.35 ticks)
Probing time = 0.00 sec. (0.26 ticks)
Clique table members: 67.
MIP emphasis: balance optimality and feasibility.
MIP search method: dynamic search.
Parallel mode: deterministic, using up to 20 threads.
Root relaxation solution time = 0.00 sec. (0.20 ticks)

        Nodes                                         Cuts/
   Node  Left     Objective  IInf  Best Integer    Best Bound    ItCnt     Gap

*     0+    0                          579.1402        0.0000           100.00%
      0     0      183.1799    21      579.1402      183.1799       25   68.37%
      0     0      245.3212    18      579.1402      Cuts: 26       47   57.64%
*     0+    0                          333.0755      245.3212            26.35%
      0     0      245.3212    18      333.0755      Cuts: 27       55   26.35%
      0     0      245.3212    18      333.0755       Cuts: 7       59   26.35%
*     0+    0                          330.7521      245.3212            25.83%
*     0+    0                          298.8414      245.3212            17.91%
Detecting symmetries...
      0     2      245.3212    18      298.8414      246.2100       59   17.61%
Elapsed time = 0.12 sec. (9.21 ticks, tree = 0.02 MB, solutions = 4)

Clique cuts applied:  3
Implied bound cuts applied:  252
Mixed integer rounding cuts applied:  12
Multi commodity flow cuts applied:  11
Lift and project cuts applied:  1

Root node processing (before b&c):
  Real time             =    0.10 sec. (9.15 ticks)
Parallel b&c, 20 threads:
  Real time             =    0.05 sec. (16.28 ticks)
  Sync time (average)   =    0.02 sec.
  Wait time (average)   =    0.00 sec.
                          ------------
Total (root+branch&cut) =    0.15 sec. (25.44 ticks)

TSP solution for this instance: 0 1 5 3 2 9 10 4 6 7 8 11 
12
Warmstart X[1][0] == 1
Warmstart X[2][1] == 1
Warmstart X[3][5] == 1
Warmstart X[4][3] == 1
Warmstart X[5][2] == 1
Warmstart X[6][9] == 1
Warmstart X[7][10] == 1
Warmstart X[8][4] == 1
Warmstart X[9][6] == 1
Warmstart X[10][7] == 1
Warmstart X[11][8] == 1
---------------------------------------------
Calculate max stage gap for sortie.... 
Stage gap of 3 with smallest length = 20.3166 violated endurance constraint!
---------------------------------------------
Variable z[1][4] was set to 0.
Variable z[1][5] was set to 0.
Variable z[1][6] was set to 0.
Variable z[1][7] was set to 0.
Variable z[1][8] was set to 0.
Variable z[1][9] was set to 0.
Variable z[1][10] was set to 0.
Variable z[1][11] was set to 0.
Variable z[1][12] was set to 0.
Variable z[2][5] was set to 0.
Variable z[2][6] was set to 0.
Variable z[2][7] was set to 0.
Variable z[2][8] was set to 0.
Variable z[2][9] was set to 0.
Variable z[2][10] was set to 0.
Variable z[2][11] was set to 0.
Variable z[2][12] was set to 0.
Variable z[3][6] was set to 0.
Variable z[3][7] was set to 0.
Variable z[3][8] was set to 0.
Variable z[3][9] was set to 0.
Variable z[3][10] was set to 0.
Variable z[3][11] was set to 0.
Variable z[3][12] was set to 0.
Variable z[4][7] was set to 0.
Variable z[4][8] was set to 0.
Variable z[4][9] was set to 0.
Variable z[4][10] was set to 0.
Variable z[4][11] was set to 0.
Variable z[4][12] was set to 0.
Variable z[5][8] was set to 0.
Variable z[5][9] was set to 0.
Variable z[5][10] was set to 0.
Variable z[5][11] was set to 0.
Variable z[5][12] was set to 0.
Variable z[6][9] was set to 0.
Variable z[6][10] was set to 0.
Variable z[6][11] was set to 0.
Variable z[6][12] was set to 0.
Variable z[7][10] was set to 0.
Variable z[7][11] was set to 0.
Variable z[7][12] was set to 0.
Variable z[8][11] was set to 0.
Variable z[8][12] was set to 0.
Variable z[9][12] was set to 0.
Num constraint added = 4752
Warning:  Output names have been modified due to duplicate names or characters invalid in LP format.
Version identifier: 22.1.1.0 | 2022-11-28 | 9160aff4d
CPXPARAM_TimeLimit                               200
CPXPARAM_MIP_Tolerances_Integrality              0
1 of 1 MIP starts provided solutions.
MIP start 'm1' defined initial solution with objective 298.8414.
Tried aggregator 2 times.
MIP Presolve eliminated 6721 rows and 2584 columns.
MIP Presolve modified 1675 coefficients.
Aggregator did 42 substitutions.
Reduced MIP has 1135 rows, 2150 columns, and 37740 nonzeros.
Reduced MIP has 2129 binaries, 0 generals, 0 SOSs, and 0 indicators.
Presolve time = 0.05 sec. (126.74 ticks)
Probing fixed 254 vars, tightened 0 bounds.
Probing changed sense of 7 constraints.
Probing time = 0.03 sec. (63.80 ticks)
Cover probing fixed 4 vars, tightened 21 bounds.
Tried aggregator 2 times.
MIP Presolve eliminated 68 rows and 262 columns.
MIP Presolve modified 292 coefficients.
Aggregator did 13 substitutions.
Reduced MIP has 1050 rows, 1875 columns, and 26951 nonzeros.
Reduced MIP has 1854 binaries, 0 generals, 0 SOSs, and 0 indicators.
Presolve time = 0.02 sec. (42.76 ticks)
Probing time = 0.00 sec. (4.55 ticks)
Tried aggregator 1 time.
Detecting symmetries...
MIP Presolve modified 52 coefficients.
Reduced MIP has 1048 rows, 1875 columns, and 26899 nonzeros.
Reduced MIP has 1854 binaries, 0 generals, 0 SOSs, and 0 indicators.
Presolve time = 0.01 sec. (24.08 ticks)
Probing time = 0.00 sec. (4.49 ticks)
Clique table members: 9785.
MIP emphasis: balance optimality and feasibility.
MIP search method: dynamic search.
Parallel mode: deterministic, using up to 20 threads.
Root relaxation solution time = 0.10 sec. (197.70 ticks)

        Nodes                                         Cuts/
   Node  Left     Objective  IInf  Best Integer    Best Bound    ItCnt     Gap

*     0+    0                          298.8414       10.1583            96.60%
      0     0      177.7250   421      298.8414      177.7250       40   40.53%
      0     0      187.3132   396      298.8414      Cuts: 24      839   37.32%
      0     0      188.5582   392      298.8414       Cuts: 4     1236   36.90%
      0     0      190.3249   358      298.8414      Cuts: 22     1671   36.31%
      0     0      191.9285   363      298.8414       Cuts: 4     1873   35.78%
      0     0      192.4782   402      298.8414       Cuts: 2     2165   35.59%
Detecting symmetries...
      0     0      193.1169   377      298.8414   ZeroHalf: 3     2387   35.38%
Detecting symmetries...
      0     2      193.1169   377      298.8414      193.1169     2387   35.38%
Elapsed time = 0.77 sec. (1414.65 ticks, tree = 0.02 MB, solutions = 1)
    341    40      257.2174   210      298.8414      193.3002    21576   35.32%
    500    14        cutoff            298.8414      202.0082    45629   32.40%
   1020   144      260.0856   130      298.8414      210.9297    81957   29.42%
   1280   280      272.5321   192      298.8414      210.9297   119174   29.42%
   1717   479      248.4431   258      298.8414      211.9452   154933   29.08%
   1957   682      230.1074   251      298.8414      211.9452   201892   29.08%
*  2216+  769                          279.6841      211.9452            24.22%
*  2297   747      integral     0      273.0877      211.9452   225850   22.39%
   2437   771      257.9839   148      273.0877      222.2054   229085   18.63%
   3123   815        cutoff            273.0877      233.7801   277945   14.39%
   3520   952        cutoff            273.0877      242.8613   325867   11.07%

GUB cover cuts applied:  4
Cover cuts applied:  36
Implied bound cuts applied:  8
Zero-half cuts applied:  18
Gomory fractional cuts applied:  2

Root node processing (before b&c):
  Real time             =    0.74 sec. (1389.45 ticks)
Parallel b&c, 20 threads:
  Real time             =    2.62 sec. (2735.12 ticks)
  Sync time (average)   =    0.90 sec.
  Wait time (average)   =    0.00 sec.
                          ------------
Total (root+branch&cut) =    3.36 sec. (4124.58 ticks)
Feasible solution found!
Truck nodes:
Stage 1 at customer 0 with arrival time is: 0
Stage 1 at customer 0 with departure time is: 0
Stage 2 at customer 1 with arrival time is: 10.1583
Stage 2 at customer 1 with departure time is: 10.1583
Stage 3 at customer 8 with arrival time is: 55.9828
Stage 3 at customer 8 with departure time is: 55.9828
Stage 4 at customer 7 with arrival time is: 66.2027
Stage 4 at customer 7 with departure time is: 66.2027
Stage 5 at customer 6 with arrival time is: 83.5811
Stage 5 at customer 6 with departure time is: 84.5811
Stage 6 at customer 4 with arrival time is: 93.8495
Stage 6 at customer 4 with departure time is: 99.4653
Stage 7 at customer 10 with arrival time is: 128.608
Stage 7 at customer 10 with departure time is: 128.608
Stage 8 at customer 9 with arrival time is: 155.202
Stage 8 at customer 9 with departure time is: 155.202
Stage 9 at customer 2 with arrival time is: 205.458
Stage 9 at customer 2 with departure time is: 205.458
Stage 10 at customer 3 with arrival time is: 214.507
Stage 10 at customer 3 with departure time is: 214.507
Stage 11 at customer 11 with arrival time is: 273.088
Stage 11 at customer 11 with departure time is: 273.088
Truck arcs:
Arc 1 connecting 0 and 1 with cost 10.1583 
Arc 2 connecting 1 and 8 with cost 45.8245 
Arc 3 connecting 8 and 7 with cost 10.2199 
Arc 4 connecting 7 and 6 with cost 17.3784 
Arc 5 connecting 6 and 4 with cost 9.26839 
Arc 6 connecting 4 and 10 with cost 29.1424 
Arc 7 connecting 10 and 9 with cost 26.5939 
Arc 8 connecting 9 and 2 with cost 50.2569 
Arc 9 connecting 2 and 3 with cost 9.04842 
Arc 10 connecting 3 and 11 with cost 58.5808 
Customer 5 served by drone.
Drone fly from 6 at stage 5 to serve 5 and then fly back to 4 at stage 6. 
Truck arcs during this sortie: 6--->4
Truck travel time from stage 5 to 6 is: 9.26839
Total drone travel time: 13.8842
Drone arrival time: 98.4653
Truck arrival time: 93.8495
Truck departure time = max(d/a, t/a) plus (sl/sr): 99.4653
Done!
-------------------------Re-calculated objective-----------------------
273.088
------------------------------------------------------------------------
Solve time: 3.365
OBJECTIVE VALUE: 273.088, NUMBER OF SORTIES: 1.
Number of revisit: 0
In write mode
